p edge 61 524
e 1 8
e 1 13
e 1 14
e 1 17
e 1 20
e 1 22
e 1 25
e 1 29
e 1 37
e 1 43
e 1 45
e 1 47
e 1 51
e 1 52
e 1 53
e 1 59
e 2 11
e 2 18
e 2 21
e 2 24
e 2 27
e 2 30
e 2 31
e 2 32
e 2 34
e 2 35
e 2 36
e 2 40
e 2 41
e 2 42
e 2 55
e 3 5
e 3 6
e 3 11
e 3 17
e 3 20
e 3 24
e 3 26
e 3 29
e 3 32
e 3 34
e 3 38
e 3 47
e 3 49
e 3 54
e 3 59
e 4 8
e 4 11
e 4 15
e 4 20
e 4 23
e 4 32
e 4 33
e 4 35
e 4 44
e 4 46
e 4 49
e 4 55
e 4 56
e 5 15
e 5 23
e 5 25
e 5 26
e 5 27
e 5 29
e 5 31
e 5 36
e 5 38
e 5 39
e 5 46
e 5 47
e 5 49
e 5 56
e 5 61
e 6 7
e 6 8
e 6 9
e 6 10
e 6 11
e 6 12
e 6 16
e 6 21
e 6 26
e 6 27
e 6 32
e 6 38
e 6 40
e 6 45
e 6 46
e 6 59
e 7 9
e 7 10
e 7 12
e 7 20
e 7 22
e 7 25
e 7 30
e 7 33
e 7 43
e 7 49
e 7 50
e 7 53
e 7 58
e 7 59
e 8 10
e 8 12
e 8 15
e 8 16
e 8 17
e 8 19
e 8 23
e 8 26
e 8 31
e 8 36
e 8 39
e 8 56
e 8 57
e 8 58
e 8 60
e 9 15
e 9 18
e 9 24
e 9 30
e 9 31
e 9 32
e 9 33
e 9 37
e 9 40
e 9 45
e 9 47
e 9 61
e 10 13
e 10 18
e 10 19
e 10 25
e 10 27
e 10 28
e 10 29
e 10 31
e 10 33
e 10 40
e 10 43
e 10 44
e 10 49
e 10 50
e 10 51
e 10 58
e 10 60
e 11 12
e 11 13
e 11 14
e 11 20
e 11 25
e 11 27
e 11 34
e 11 36
e 11 41
e 11 43
e 11 44
e 11 51
e 11 53
e 11 54
e 11 55
e 11 58
e 12 23
e 12 25
e 12 26
e 12 27
e 12 32
e 12 35
e 12 36
e 12 37
e 12 40
e 12 43
e 12 46
e 12 48
e 12 49
e 12 50
e 12 51
e 12 58
e 13 15
e 13 16
e 13 18
e 13 20
e 13 21
e 13 22
e 13 23
e 13 24
e 13 27
e 13 29
e 13 30
e 13 33
e 13 44
e 13 48
e 14 17
e 14 18
e 14 19
e 14 26
e 14 35
e 14 36
e 14 39
e 14 44
e 14 46
e 14 48
e 14 49
e 14 56
e 14 61
e 15 17
e 15 20
e 15 21
e 15 23
e 15 25
e 15 31
e 15 32
e 15 35
e 15 37
e 15 38
e 15 43
e 15 47
e 15 53
e 15 56
e 15 60
e 15 61
e 16 20
e 16 22
e 16 23
e 16 25
e 16 28
e 16 34
e 16 35
e 16 40
e 16 41
e 16 43
e 16 52
e 16 57
e 16 60
e 17 31
e 17 35
e 17 38
e 17 39
e 17 40
e 17 43
e 17 52
e 17 55
e 17 58
e 17 59
e 17 60
e 18 23
e 18 29
e 18 33
e 18 37
e 18 40
e 18 42
e 18 43
e 18 50
e 18 53
e 18 57
e 18 58
e 19 20
e 19 21
e 19 23
e 19 26
e 19 32
e 19 33
e 19 36
e 19 37
e 19 40
e 19 44
e 19 46
e 19 51
e 19 52
e 19 55
e 19 56
e 19 60
e 19 61
e 20 27
e 20 29
e 20 31
e 20 34
e 20 35
e 20 38
e 20 44
e 20 47
e 20 54
e 20 59
e 20 61
e 21 24
e 21 31
e 21 35
e 21 37
e 21 42
e 21 44
e 21 47
e 21 48
e 21 58
e 22 31
e 22 35
e 22 36
e 22 38
e 22 40
e 22 46
e 22 54
e 22 60
e 23 26
e 23 39
e 23 45
e 23 47
e 23 48
e 23 51
e 23 56
e 24 29
e 24 34
e 24 35
e 24 39
e 24 44
e 24 46
e 24 47
e 24 51
e 24 55
e 24 58
e 24 59
e 25 28
e 25 29
e 25 30
e 25 31
e 25 33
e 25 36
e 25 37
e 25 40
e 25 41
e 25 43
e 25 44
e 25 50
e 26 28
e 26 33
e 26 37
e 26 39
e 26 41
e 26 42
e 26 44
e 26 50
e 26 51
e 26 53
e 26 54
e 27 28
e 27 33
e 27 34
e 27 37
e 27 38
e 27 47
e 27 50
e 27 54
e 27 55
e 27 58
e 27 60
e 28 38
e 28 42
e 28 44
e 28 48
e 28 49
e 28 50
e 28 55
e 28 60
e 29 31
e 29 37
e 29 47
e 29 48
e 29 51
e 29 53
e 30 38
e 30 39
e 30 40
e 30 41
e 30 46
e 30 48
e 30 50
e 30 53
e 30 55
e 30 58
e 30 59
e 30 61
e 31 36
e 31 39
e 31 40
e 31 42
e 31 43
e 31 47
e 31 48
e 31 49
e 31 53
e 31 55
e 31 56
e 31 57
e 31 58
e 32 34
e 32 37
e 32 40
e 32 50
e 32 55
e 32 57
e 32 58
e 33 38
e 33 40
e 33 45
e 33 48
e 33 49
e 33 52
e 33 58
e 33 60
e 33 61
e 34 35
e 34 41
e 34 44
e 34 46
e 34 51
e 34 53
e 34 55
e 34 57
e 34 60
e 35 39
e 35 42
e 35 43
e 35 47
e 35 48
e 35 51
e 35 52
e 35 56
e 36 37
e 36 38
e 36 39
e 36 46
e 36 47
e 36 49
e 36 50
e 36 51
e 36 52
e 36 60
e 37 38
e 37 40
e 37 41
e 37 48
e 37 60
e 38 43
e 38 46
e 38 47
e 38 51
e 39 40
e 39 42
e 39 43
e 39 46
e 39 52
e 39 55
e 39 56
e 39 57
e 39 60
e 40 41
e 40 44
e 40 48
e 40 49
e 40 50
e 40 60
e 41 43
e 41 46
e 41 47
e 41 50
e 42 49
e 42 53
e 42 57
e 43 44
e 43 46
e 43 47
e 43 49
e 43 53
e 43 58
e 44 48
e 44 50
e 44 54
e 44 58
e 44 60
e 44 61
e 45 46
e 45 48
e 45 50
e 45 52
e 45 54
e 46 47
e 46 55
e 46 60
e 47 50
e 47 51
e 47 53
e 48 50
e 48 51
e 48 52
e 48 56
e 48 57
e 49 50
e 49 52
e 49 61
e 50 55
e 50 56
e 50 58
e 50 61
e 51 52
e 51 56
e 51 57
e 51 59
e 52 54
e 52 55
e 52 59
e 53 59
e 53 61
e 54 55
e 54 56
e 54 57
e 54 59
e 55 57
e 55 58
e 56 58
e 56 60
e 57 59
e 58 59
e 59 61
e 60 61
